sat

(objectives
 ((bvadd PriceProv6 (bvadd PriceProv5 (bvadd PriceProv4 (bvadd PriceProv3 (bvadd PriceProv1 PriceProv2))))) (_ bv2192 32))
)
;; statistics
(
 :cnf-variables 2390
 :cnf-literals 11109
 :cnf-clauses 4702
 :sat-checks 10
 :sat-restarts 24
 :sat-decisions 53547
 :sat-random-decisions 20
 :sat-propagations 58156139
 :sat-theory-propagations 0
 :sat-watched-clauses-visited 66086537
 :sat-binary-watched-clauses-visited 37535553
 :sat-conflicts 10066
 :sat-theory-conflicts 0
 :theory-necessary-interface-equalities 0
 :theory-extra-interface-equalities 0
 :euf-total-calls 55034
 :euf-complete-calls 14
 :euf-conflicts 0
 :euf-implications 0
 :euf-explanations 0
 :euf-egraph-nodes-created 11441
 :euf-egraph-nodes-deleted 7516
 :euf-num-asserted-equalities 800903
 :euf-num-asserted-inequalities 606239
 :euf-num-merges 1382308
 :euf-num-merges-undone 1382308
 :euf-num-atoms-retold 1536
 :la-total-calls 55034
 :la-complete-calls 14
 :la-conflicts 0
 :la-implications 0
 :la-explanations 0
 :la-num-equalities-split 0
 :la-num-tableau-rows 0
 :la-num-tableau-variables 0
 :bv-total-calls 55034
 :bv-complete-calls 14
 :bv-conflicts 0
 :bv-implications 0
 :bv-explanations 0
 :fp-total-calls 55034
 :fp-complete-calls 14
 :fp-conflicts 0
 :fp-implications 0
 :fp-explanations 0
 :arr-total-calls 55034
 :arr-complete-calls 14
 :arr-conflicts 0
 :arr-implications 0
 :arr-explanations 0
 :arr-write-lemmas-added 0
 :arr-row-lemmas-added 0
 :arr-ext-lemmas-added 0
 :arr-const-lemmas-added 0
 :na-total-calls 55034
 :na-complete-calls 14
 :na-conflicts 0
 :na-implications 0
 :na-explanations 0
 :na-num_nonlinear_multiplications 0
 :na-num_axiom_checks 0
 :na-num_zero_lemmas 0
 :na-num_sign_lemmas 0
 :na-num_neutral_lemmas 0
 :na-num_proportionality_lemmas 0
 :na-num_bound_lemmas 0
 :na-num_tangent_lemmas 0
 :na-num_monotonicity_lemmas 0
 :na-num_sat_checks 0
 :na-axiom_check_time 0.000
 :na-sat_check_time 0.000
 :time-seconds 8.088
 :memory-mb 51.293
)
